;test regex ^ (?: \\d{1,16} | (?: \\x0A | \\x0D | [\\x20-\\x5A] | \\x5F | [\\x61-\\x7A] | \\xC2\\xA0 | \\xCE\\xA9 ){1,11} ) $
(declare-const X String)
(assert (str.in_re X (re.++ (re.++ (str.to_re "") (re.++ (str.to_re " ") (re.++ (re.union (re.++ (str.to_re " ") (re.++ (str.to_re "\\") (re.++ ((_ re.loop 1 16) (str.to_re "d")) (str.to_re " ")))) (re.++ (str.to_re " ") (re.++ ((_ re.loop 1 11) (re.union (re.union (re.union (re.union (re.union (re.union (re.++ (str.to_re " ") (re.++ (str.to_re "\\") (re.++ (str.to_re "x") (re.++ (str.to_re "0") (re.++ (str.to_re "A") (str.to_re " ")))))) (re.++ (str.to_re " ") (re.++ (str.to_re "\\") (re.++ (str.to_re "x") (re.++ (str.to_re "0") (re.++ (str.to_re "D") (str.to_re " "))))))) (re.++ (str.to_re " ") (re.++ (re.union (str.to_re "\\") (re.union (str.to_re "x") (re.union (re.range "20" "\\") (re.union (str.to_re "x") (re.union (str.to_re "5") (str.to_re "A")))))) (str.to_re " ")))) (re.++ (str.to_re " ") (re.++ (str.to_re "\\") (re.++ (str.to_re "x") (re.++ (str.to_re "5") (re.++ (str.to_re "F") (str.to_re " "))))))) (re.++ (str.to_re " ") (re.++ (re.union (str.to_re "\\") (re.union (str.to_re "x") (re.union (re.range "61" "\\") (re.union (str.to_re "x") (re.union (str.to_re "7") (str.to_re "A")))))) (str.to_re " ")))) (re.++ (str.to_re " ") (re.++ (str.to_re "\\") (re.++ (str.to_re "x") (re.++ (str.to_re "C") (re.++ (str.to_re "2") (re.++ (str.to_re "\\") (re.++ (str.to_re "x") (re.++ (str.to_re "A") (re.++ (str.to_re "0") (str.to_re " "))))))))))) (re.++ (str.to_re " ") (re.++ (str.to_re "\\") (re.++ (str.to_re "x") (re.++ (str.to_re "C") (re.++ (str.to_re "E") (re.++ (str.to_re "\\") (re.++ (str.to_re "x") (re.++ (str.to_re "A") (re.++ (str.to_re "9") (str.to_re " ")))))))))))) (str.to_re " ")))) (str.to_re " ")))) (str.to_re ""))))
; sanitize danger characters:  < > ' " &
(assert (not (str.in_re X (re.++ re.all (re.union (str.to_re "\u{3c}") (str.to_re "\u{3e}") (str.to_re "\u{27}") (str.to_re "\u{22}") (str.to_re "\u{26}")) re.all))))
(assert (< 9 (str.len X)))
(check-sat)
(get-model)